
n_res = 8;
rcap = [99, 114, 118, 112, 1427, 1351, 1342, 1317];
rtype = [1, 1, 1, 1, 2, 2, 2, 2];
n_tasks = 100;
modes =  [{1, 2, 3}, {4, 5, 6}, {7, 8, 9}, {10, 11, 12}, {13, 14, 15}, {16, 17, 18}, {19, 20, 21}, {22, 23, 24}, {25, 26, 27}, {28, 29, 30}, {31, 32, 33}, {34, 35, 36}, {37, 38, 39}, {40, 41, 42}, {43, 44, 45}, {46, 47, 48}, {49, 50, 51}, {52, 53, 54}, {55, 56, 57}, {58, 59, 60}, {61, 62, 63}, {64, 65, 66}, {67, 68, 69}, {70, 71, 72}, {73, 74, 75}, {76, 77, 78}, {79, 80, 81}, {82, 83, 84}, {85, 86, 87}, {88, 89, 90}, {91, 92, 93}, {94, 95, 96}, {97, 98, 99}, {100, 101, 102}, {103, 104, 105}, {106, 107, 108}, {109, 110, 111}, {112, 113, 114}, {115, 116, 117}, {118, 119, 120}, {121, 122, 123}, {124, 125, 126}, {127, 128, 129}, {130, 131, 132}, {133, 134, 135}, {136, 137, 138}, {139, 140, 141}, {142, 143, 144}, {145, 146, 147}, {148, 149, 150}, {151, 152, 153}, {154, 155, 156}, {157, 158, 159}, {160, 161, 162}, {163, 164, 165}, {166, 167, 168}, {169, 170, 171}, {172, 173, 174}, {175, 176, 177}, {178, 179, 180}, {181, 182, 183}, {184, 185, 186}, {187, 188, 189}, {190, 191, 192}, {193, 194, 195}, {196, 197, 198}, {199, 200, 201}, {202, 203, 204}, {205, 206, 207}, {208, 209, 210}, {211, 212, 213}, {214, 215, 216}, {217, 218, 219}, {220, 221, 222}, {223, 224, 225}, {226, 227, 228}, {229, 230, 231}, {232, 233, 234}, {235, 236, 237}, {238, 239, 240}, {241, 242, 243}, {244, 245, 246}, {247, 248, 249}, {250, 251, 252}, {253, 254, 255}, {256, 257, 258}, {259, 260, 261}, {262, 263, 264}, {265, 266, 267}, {268, 269, 270}, {271, 272, 273}, {274, 275, 276}, {277, 278, 279}, {280, 281, 282}, {283, 284, 285}, {286, 287, 288}, {289, 290, 291}, {292, 293, 294}, {295, 296, 297}, {298, 299, 300}];
succ =  [{42, 33, 31, 22, 16, 15, 7}, {48, 40, 39, 38, 37, 35, 31, 26, 22, 20, 15}, {55, 48, 45, 40, 39, 38, 37, 35, 29, 28, 27, 25, 24, 20}, {55, 48, 39, 27, 24, 20, 16, 12}, {67, 50, 49, 44, 42, 39, 38, 37, 36, 35, 33, 30, 29, 26, 22}, {72, 49, 47, 44, 41, 40, 39, 37, 36, 35, 34, 32, 30, 29, 27, 26}, {72, 67, 51, 50, 49, 48, 47, 45, 44, 40, 39, 38, 37, 36, 35, 32, 29, 26}, {51, 49, 48, 44, 37, 36, 35, 31, 28, 26, 17}, {72, 67, 51, 49, 48, 47, 45, 44, 41, 40, 39, 38, 37, 32, 30, 29, 26}, {72, 67, 60, 49, 48, 44, 41, 40, 39, 30, 27, 26}, {72, 55, 52, 50, 49, 47, 42, 40, 35, 29, 21}, {60, 57, 53, 51, 50, 49, 47, 46, 45, 44, 40, 37, 31, 30, 29}, {67, 60, 59, 55, 52, 49, 48, 41, 38, 35, 28, 25}, {72, 67, 60, 59, 57, 53, 51, 48, 45, 44, 43, 41, 38, 35}, {60, 57, 53, 51, 50, 49, 44, 41, 30, 29}, {67, 65, 60, 59, 57, 54, 53, 51, 49, 47, 46, 45, 44, 40}, {72, 71, 67, 63, 60, 59, 57, 53, 50, 46, 40, 33, 30}, {60, 59, 58, 57, 53, 52, 51, 46, 36, 33, 30}, {72, 60, 57, 55, 53, 46, 44, 38, 36, 35}, {72, 67, 62, 59, 54, 53, 52, 49, 47, 42, 36}, {71, 57, 56, 53, 51, 46, 44, 33, 32}, {76, 72, 71, 66, 62, 58, 53, 51, 47, 45, 32}, {76, 72, 67, 63, 54, 53, 51, 43, 42, 38, 36}, {72, 70, 65, 62, 60, 59, 56, 54, 52, 47, 44, 41}, {71, 66, 65, 57, 53, 51, 50, 46, 44, 43}, {71, 68, 66, 65, 63, 59, 57, 55, 54, 53, 52, 46, 43}, {71, 68, 66, 65, 63, 54, 53, 51, 50, 46, 43}, {99, 98, 97, 80, 77, 76, 74, 72, 71, 70, 68, 66, 65, 64, 61, 58, 56, 54}, {77, 75, 73, 71, 68, 65, 64, 61, 59, 43}, {77, 76, 68, 65, 64, 61, 54, 43}, {77, 74, 72, 68, 67, 65, 54, 41}, {100, 99, 98, 68, 65, 64, 63, 61, 60, 54}, {100, 98, 97, 96, 81, 80, 79, 75, 74, 73, 70, 68, 66, 65, 64, 62}, {100, 98, 97, 81, 79, 76, 75, 70, 68, 67, 65, 60, 56}, {99, 97, 94, 80, 71, 68, 66, 65, 64, 58, 54}, {99, 97, 96, 93, 92, 81, 80, 79, 75, 74, 73, 70, 66, 64, 61, 56}, {99, 98, 97, 96, 93, 81, 80, 79, 76, 74, 71, 70, 69, 68, 62, 61}, {100, 99, 98, 97, 93, 80, 77, 75, 74, 73, 71, 68, 64, 61, 56}, {97, 96, 92, 90, 76, 75, 74, 73, 71, 70, 66, 64, 58}, {100, 98, 96, 93, 91, 81, 80, 79, 75, 74, 73, 68, 66, 61, 56}, {99, 98, 97, 96, 94, 92, 90, 89, 76, 75, 69, 66, 58}, {100, 97, 96, 92, 80, 79, 73, 71, 70, 65, 61, 56}, {100, 98, 97, 93, 92, 81, 80, 79, 74, 70, 62, 56}, {98, 97, 96, 90, 88, 75, 73, 68, 61, 58}, {99, 98, 97, 91, 77, 73, 68, 63, 61, 56}, {98, 96, 95, 93, 92, 80, 76, 75, 74, 70, 64, 62}, {91, 90, 75, 74, 68, 64, 63, 61}, {99, 97, 96, 93, 92, 90, 88, 81, 77, 75, 71, 66}, {98, 96, 95, 94, 93, 92, 91, 89, 76, 75, 73, 69}, {97, 92, 90, 80, 79, 73, 64, 61}, {99, 97, 96, 94, 91, 90, 89, 88, 87, 86, 81, 77, 75, 73}, {100, 98, 96, 93, 92, 90, 89, 84, 80, 77, 69}, {92, 90, 80, 75, 70, 64}, {96, 93, 92, 91, 90, 89, 88, 87, 81, 79, 75, 73}, {97, 93, 90, 88, 87, 80, 79, 73, 70}, {95, 94, 90, 89, 85, 84, 78, 69}, {93, 91, 90, 87, 86, 80, 79, 73}, {95, 91, 85, 81, 63}, {99, 94, 92, 91, 84, 82, 69}, {96, 89, 88, 86, 84, 80, 74}, {95, 94, 89, 87, 85, 78}, {90, 89, 88, 86, 84, 78}, {93, 86, 83, 79, 78}, {89, 84, 69}, {93, 90, 89, 83, 78}, {87, 86, 85, 84, 78}, {88, 84, 83, 82, 80}, {95, 92, 87, 83, 82}, {88, 87, 86, 83}, {94, 91, 86, 85}, {95, 91, 89, 82}, {92, 87, 84, 83}, {85, 83, 78}, {85, 83, 82}, {84, 78}, {85, 78}, {78}, {82}, {84}, {85}, {83}, {}, {}, {}, {}, {}, {}, {}, {}, {}, {}, {}, {}, {}, {}, {}, {}, {}, {}, {}];
n_opt = 300;
dur = [10, 12, 20, 7, 8, 10, 17, 18, 25, 1, 4, 23, 3, 20, 28, 12, 25, 28, 1, 5, 13, 8, 14, 27, 7, 19, 20, 9, 13, 14, 13, 14, 21, 3, 5, 20, 15, 20, 22, 10, 18, 22, 4, 5, 26, 14, 23, 30, 8, 9, 12, 3, 9, 30, 14, 17, 21, 11, 17, 21, 12, 24, 29, 17, 24, 29, 8, 9, 20, 14, 18, 25, 7, 25, 27, 7, 11, 22, 1, 21, 25, 21, 23, 25, 3, 12, 16, 8, 20, 21, 14, 21, 27, 3, 8, 21, 2, 3, 6, 12, 13, 18, 8, 16, 24, 6, 14, 15, 13, 27, 28, 3, 5, 30, 12, 21, 30, 13, 16, 25, 16, 18, 28, 14, 15, 29, 10, 13, 27, 5, 23, 29, 1, 11, 21, 18, 19, 22, 19, 21, 23, 1, 20, 23, 1, 13, 22, 12, 18, 20, 3, 11, 29, 16, 23, 24, 6, 16, 29, 1, 4, 26, 12, 26, 29, 6, 25, 26, 5, 19, 23, 14, 23, 30, 5, 14, 27, 3, 9, 28, 2, 19, 27, 17, 19, 25, 3, 18, 20, 15, 17, 25, 2, 4, 19, 1, 7, 30, 2, 5, 24, 19, 27, 28, 9, 13, 20, 5, 13, 15, 7, 26, 30, 6, 7, 11, 6, 7, 22, 13, 25, 27, 3, 28, 29, 18, 21, 22, 4, 17, 30, 6, 23, 30, 14, 20, 22, 14, 27, 29, 13, 19, 20, 4, 12, 20, 10, 27, 28, 2, 11, 13, 16, 26, 28, 2, 6, 21, 3, 4, 19, 3, 13, 24, 6, 11, 23, 12, 14, 15, 2, 3, 7, 7, 8, 12, 13, 19, 26, 9, 10, 24, 6, 12, 17, 7, 26, 27, 1, 2, 29, 5, 11, 21, 2, 6, 12, 4, 13, 20];
rreq = [|10, 8, 8, 18, 16, 15, 26, 20, 16, 20, 17, 13, 22, 18, 15, 27, 22, 21, 14, 11, 7, 13, 11, 7, 19, 11, 6, 5, 5, 4, 15, 9, 5, 21, 19, 14, 20, 11, 2, 19, 13, 13, 29, 20, 19, 21, 14, 11, 21, 20, 17, 17, 15, 10, 21, 14, 9, 29, 28, 28, 15, 13, 11, 14, 14, 12, 9, 6, 3, 15, 8, 8, 25, 20, 16, 16, 13, 12, 6, 6, 6, 18, 15, 12, 15, 12, 12, 13, 9, 8, 18, 16, 16, 27, 21, 16, 27, 26, 25, 19, 17, 17, 12, 12, 12, 23, 20, 20, 12, 11, 9, 11, 10, 7, 8, 7, 7, 7, 7, 7, 14, 9, 6, 19, 19, 19, 15, 7, 7, 27, 22, 20, 25, 25, 24, 21, 20, 19, 23, 16, 9, 23, 16, 10, 21, 14, 14, 7, 6, 4, 20, 12, 7, 23, 16, 9, 26, 22, 20, 23, 15, 13, 25, 20, 16, 24, 23, 23, 22, 9, 3, 24, 18, 12, 23, 18, 7, 17, 11, 8, 3, 2, 1, 6, 4, 3, 24, 17, 1, 14, 10, 4, 22, 13, 4, 18, 17, 17, 20, 16, 15, 19, 18, 17, 20, 19, 18, 8, 7, 7, 21, 19, 18, 24, 21, 14, 15, 12, 11, 24, 22, 16, 19, 18, 14, 3, 3, 2, 20, 12, 7, 21, 13, 2, 20, 16, 15, 28, 28, 27, 15, 14, 12, 16, 12, 9, 24, 21, 18, 11, 5, 5, 13, 11, 11, 13, 13, 13, 11, 11, 7, 26, 24, 23, 21, 19, 19, 30, 30, 30, 22, 19, 17, 27, 26, 26, 21, 11, 7, 6, 5, 4, 30, 30, 30, 7, 3, 2, 16, 13, 11, 20, 19, 18, 18, 15, 10, 22, 21, 21
 |25, 25, 20, 17, 8, 3, 24, 19, 12, 13, 9, 6, 22, 21, 20, 24, 19, 15, 26, 23, 20, 25, 13, 6, 27, 15, 13, 27, 24, 22, 14, 14, 14, 26, 26, 25, 18, 18, 17, 18, 15, 13, 20, 17, 10, 23, 21, 19, 18, 13, 12, 17, 15, 9, 21, 8, 7, 13, 8, 1, 14, 14, 14, 14, 8, 2, 25, 23, 23, 30, 25, 22, 24, 23, 23, 5, 3, 2, 30, 25, 21, 22, 18, 10, 29, 23, 19, 17, 16, 11, 12, 6, 3, 14, 11, 6, 16, 15, 15, 27, 25, 20, 25, 20, 18, 15, 10, 10, 17, 13, 9, 19, 16, 15, 28, 20, 9, 14, 10, 8, 29, 24, 21, 13, 10, 8, 12, 7, 7, 27, 25, 24, 13, 8, 8, 15, 7, 1, 22, 11, 9, 18, 18, 15, 25, 16, 6, 23, 17, 2, 23, 19, 18, 19, 13, 9, 12, 11, 9, 27, 26, 23, 23, 18, 8, 23, 13, 3, 18, 10, 6, 23, 21, 21, 24, 22, 20, 22, 20, 20, 28, 14, 8, 10, 8, 7, 23, 21, 21, 2, 2, 2, 22, 19, 7, 18, 12, 7, 25, 21, 18, 23, 11, 2, 28, 17, 16, 18, 9, 4, 23, 12, 11, 6, 6, 6, 17, 11, 5, 26, 23, 22, 25, 22, 18, 13, 13, 13, 21, 17, 17, 26, 25, 24, 21, 19, 19, 19, 16, 13, 25, 24, 18, 17, 14, 8, 12, 7, 4, 24, 15, 13, 3, 2, 2, 22, 21, 20, 23, 15, 12, 11, 10, 9, 29, 12, 12, 13, 8, 7, 18, 15, 14, 18, 14, 10, 6, 6, 6, 11, 6, 5, 13, 9, 8, 20, 20, 20, 13, 11, 9, 14, 14, 13, 11, 11, 7, 19, 18, 17
 |21, 17, 11, 12, 9, 6, 13, 11, 11, 20, 18, 14, 20, 18, 17, 16, 16, 16, 11, 10, 9, 28, 24, 19, 18, 16, 11, 21, 18, 13, 12, 8, 4, 24, 22, 18, 25, 22, 21, 5, 5, 5, 6, 6, 6, 18, 12, 7, 23, 21, 20, 22, 21, 18, 10, 6, 2, 23, 17, 10, 22, 12, 5, 30, 25, 24, 7, 5, 3, 30, 29, 29, 22, 19, 14, 16, 14, 14, 11, 6, 2, 22, 18, 13, 22, 20, 17, 2, 2, 1, 15, 10, 6, 19, 16, 12, 20, 20, 18, 24, 21, 21, 26, 24, 23, 20, 20, 20, 19, 14, 9, 26, 19, 11, 25, 18, 18, 23, 19, 18, 25, 22, 20, 21, 16, 10, 25, 23, 19, 24, 17, 16, 26, 25, 25, 17, 12, 10, 22, 15, 7, 30, 28, 28, 14, 13, 11, 26, 21, 19, 25, 24, 21, 5, 4, 3, 5, 5, 3, 6, 6, 5, 15, 15, 4, 22, 20, 20, 25, 24, 23, 26, 24, 22, 25, 20, 20, 4, 2, 2, 15, 12, 8, 15, 15, 9, 10, 8, 3, 26, 18, 17, 24, 17, 13, 16, 13, 12, 16, 12, 8, 20, 14, 12, 27, 15, 10, 20, 17, 15, 27, 13, 7, 22, 15, 12, 19, 11, 8, 14, 13, 2, 7, 5, 3, 28, 18, 15, 22, 18, 11, 15, 14, 12, 28, 19, 15, 26, 18, 11, 29, 26, 25, 10, 9, 9, 23, 18, 5, 25, 10, 9, 22, 22, 12, 8, 8, 8, 26, 21, 19, 19, 17, 14, 16, 14, 10, 13, 10, 9, 14, 13, 13, 19, 15, 12, 8, 6, 6, 9, 9, 4, 7, 6, 6, 19, 16, 15, 19, 16, 8, 10, 8, 5, 14, 12, 8, 19, 18, 16
 |18, 17, 14, 5, 4, 4, 20, 16, 7, 29, 20, 12, 28, 28, 27, 23, 20, 16, 14, 12, 6, 7, 6, 5, 15, 14, 12, 20, 20, 16, 6, 5, 3, 27, 26, 22, 27, 21, 21, 19, 15, 12, 19, 15, 5, 26, 23, 23, 20, 15, 9, 9, 8, 7, 27, 21, 18, 24, 21, 14, 9, 7, 4, 2, 2, 2, 14, 14, 14, 7, 7, 1, 23, 22, 21, 19, 17, 14, 12, 12, 10, 19, 17, 13, 26, 25, 24, 24, 16, 8, 13, 11, 10, 29, 13, 4, 24, 22, 20, 13, 8, 3, 28, 25, 21, 27, 26, 25, 13, 7, 4, 17, 15, 13, 28, 23, 19, 18, 13, 9, 24, 19, 17, 7, 4, 3, 8, 5, 3, 13, 11, 5, 17, 15, 11, 23, 13, 8, 27, 27, 24, 20, 11, 2, 11, 6, 3, 2, 1, 1, 24, 23, 17, 26, 20, 14, 21, 13, 8, 20, 14, 5, 17, 16, 11, 12, 12, 12, 10, 10, 10, 14, 14, 12, 19, 11, 8, 12, 11, 6, 17, 13, 7, 28, 26, 25, 15, 11, 7, 18, 13, 10, 29, 26, 25, 25, 15, 12, 13, 13, 13, 9, 6, 5, 21, 14, 7, 26, 19, 12, 12, 8, 8, 5, 5, 5, 25, 17, 13, 27, 24, 22, 18, 12, 6, 19, 14, 12, 23, 16, 13, 8, 7, 7, 23, 14, 10, 29, 23, 14, 9, 8, 2, 25, 18, 13, 17, 16, 16, 15, 7, 7, 15, 15, 15, 14, 12, 11, 19, 17, 16, 26, 26, 24, 17, 17, 17, 25, 21, 13, 23, 15, 12, 20, 14, 7, 18, 14, 9, 15, 12, 11, 22, 17, 10, 28, 28, 28, 25, 18, 11, 20, 13, 13, 25, 19, 13, 26, 25, 25
 |7, 7, 6, 21, 11, 6, 23, 21, 16, 27, 27, 26, 23, 18, 13, 17, 14, 7, 22, 13, 6, 13, 10, 9, 28, 18, 7, 11, 6, 6, 20, 16, 11, 24, 22, 12, 22, 14, 13, 10, 10, 7, 27, 24, 21, 11, 8, 3, 23, 19, 2, 24, 19, 15, 6, 5, 3, 10, 8, 5, 22, 10, 4, 18, 13, 11, 17, 16, 13, 29, 15, 12, 23, 11, 8, 22, 16, 12, 28, 20, 14, 25, 24, 23, 18, 18, 18, 8, 8, 8, 29, 16, 5, 28, 27, 27, 29, 23, 12, 18, 17, 17, 15, 12, 8, 29, 23, 21, 23, 23, 21, 29, 29, 29, 10, 8, 6, 6, 5, 3, 23, 16, 6, 17, 10, 6, 29, 29, 28, 20, 18, 16, 14, 9, 5, 29, 28, 28, 27, 21, 17, 7, 7, 6, 16, 10, 8, 13, 12, 11, 25, 23, 11, 29, 27, 27, 27, 24, 23, 29, 26, 26, 14, 9, 6, 21, 14, 14, 17, 17, 17, 14, 11, 6, 24, 21, 21, 23, 23, 23, 12, 10, 7, 21, 18, 14, 22, 14, 10, 14, 7, 4, 20, 16, 15, 11, 7, 3, 27, 19, 15, 23, 21, 17, 21, 19, 19, 4, 3, 1, 13, 9, 3, 22, 21, 16, 16, 12, 6, 30, 25, 20, 13, 10, 8, 18, 13, 6, 12, 12, 10, 27, 27, 23, 24, 16, 16, 24, 16, 13, 22, 19, 16, 17, 14, 12, 6, 5, 3, 25, 15, 10, 19, 16, 11, 19, 16, 16, 27, 27, 26, 18, 13, 3, 6, 6, 1, 15, 13, 12, 27, 20, 16, 21, 17, 16, 24, 19, 17, 7, 6, 6, 28, 26, 21, 20, 13, 7, 25, 22, 17, 23, 18, 10, 23, 23, 21, 11, 9, 8
 |21, 21, 21, 28, 25, 18, 15, 8, 4, 9, 8, 8, 13, 10, 9, 16, 13, 13, 22, 17, 13, 16, 14, 12, 2, 2, 2, 16, 14, 10, 5, 5, 4, 28, 25, 22, 26, 25, 20, 6, 5, 4, 15, 15, 15, 22, 18, 10, 13, 10, 10, 17, 8, 3, 7, 4, 3, 11, 10, 10, 23, 13, 9, 24, 20, 18, 5, 5, 5, 25, 25, 21, 15, 14, 11, 18, 18, 16, 17, 16, 16, 22, 18, 9, 25, 21, 17, 20, 12, 8, 17, 16, 13, 19, 16, 12, 23, 18, 14, 14, 12, 8, 19, 19, 8, 8, 8, 6, 18, 17, 14, 30, 12, 6, 13, 8, 7, 22, 15, 7, 11, 8, 4, 24, 23, 23, 28, 23, 17, 12, 10, 7, 23, 21, 21, 26, 22, 13, 6, 6, 6, 15, 12, 5, 17, 15, 11, 17, 8, 3, 17, 15, 13, 26, 22, 18, 12, 11, 9, 26, 22, 15, 21, 21, 19, 27, 14, 6, 8, 8, 8, 23, 11, 11, 8, 6, 6, 20, 16, 14, 26, 20, 14, 29, 27, 26, 12, 8, 7, 5, 2, 1, 22, 19, 18, 22, 20, 17, 28, 27, 27, 19, 17, 15, 19, 18, 17, 9, 8, 7, 16, 8, 4, 19, 19, 10, 5, 5, 5, 19, 14, 11, 19, 19, 19, 26, 25, 23, 22, 17, 13, 29, 24, 19, 14, 14, 13, 20, 19, 6, 25, 25, 25, 9, 7, 5, 28, 21, 18, 22, 21, 20, 23, 14, 9, 15, 9, 8, 18, 12, 7, 13, 11, 8, 28, 27, 26, 29, 17, 11, 23, 19, 12, 21, 15, 13, 20, 14, 13, 17, 16, 16, 17, 13, 7, 29, 25, 22, 12, 11, 10, 13, 9, 3, 24, 14, 3, 19, 17, 16
 |25, 21, 17, 27, 21, 14, 14, 9, 2, 20, 19, 18, 19, 18, 17, 16, 13, 3, 21, 14, 12, 7, 7, 5, 10, 7, 5, 28, 22, 19, 27, 24, 23, 8, 7, 7, 28, 28, 28, 7, 5, 5, 14, 12, 9, 18, 10, 7, 24, 17, 13, 13, 6, 1, 24, 16, 7, 23, 10, 7, 9, 8, 6, 28, 25, 24, 18, 17, 17, 23, 20, 19, 15, 13, 5, 16, 10, 9, 21, 20, 19, 25, 20, 13, 11, 9, 8, 21, 15, 13, 6, 6, 6, 29, 28, 27, 17, 16, 16, 14, 12, 10, 15, 11, 9, 13, 7, 7, 5, 2, 2, 18, 16, 16, 26, 20, 14, 19, 14, 5, 16, 16, 16, 26, 25, 25, 10, 9, 9, 29, 29, 29, 18, 16, 14, 17, 15, 13, 20, 12, 9, 18, 15, 15, 25, 24, 22, 24, 21, 19, 22, 15, 12, 8, 4, 3, 30, 22, 16, 16, 16, 14, 19, 16, 14, 27, 25, 17, 18, 14, 7, 20, 15, 11, 22, 19, 18, 16, 8, 6, 23, 19, 16, 5, 5, 5, 26, 26, 25, 12, 11, 9, 22, 21, 21, 13, 8, 5, 20, 10, 3, 25, 16, 15, 22, 16, 6, 15, 13, 12, 23, 17, 15, 6, 4, 4, 5, 4, 3, 20, 19, 19, 19, 16, 14, 14, 9, 7, 23, 18, 7, 21, 17, 13, 27, 20, 14, 23, 22, 18, 13, 12, 12, 22, 12, 7, 13, 10, 3, 9, 5, 5, 14, 5, 1, 28, 18, 12, 15, 12, 9, 26, 24, 22, 24, 14, 8, 8, 8, 4, 20, 12, 8, 10, 10, 10, 21, 19, 10, 24, 23, 19, 12, 12, 8, 26, 25, 25, 24, 13, 5, 20, 19, 11, 9, 7, 6, 28, 17, 3
 |9, 8, 6, 9, 8, 6, 9, 9, 5, 11, 7, 5, 21, 20, 18, 30, 27, 26, 22, 18, 5, 19, 12, 6, 21, 16, 11, 14, 6, 5, 26, 12, 7, 17, 15, 9, 15, 15, 15, 15, 7, 6, 23, 17, 10, 8, 5, 3, 23, 20, 14, 20, 9, 4, 13, 9, 2, 11, 10, 7, 23, 12, 5, 19, 16, 15, 20, 16, 12, 20, 18, 18, 20, 12, 9, 19, 18, 17, 4, 2, 1, 26, 23, 23, 10, 8, 6, 16, 15, 12, 10, 10, 4, 18, 16, 14, 18, 12, 7, 19, 19, 19, 19, 18, 16, 26, 22, 19, 24, 22, 22, 17, 17, 15, 21, 12, 6, 19, 15, 12, 23, 11, 6, 13, 12, 8, 12, 12, 12, 19, 18, 18, 21, 17, 13, 19, 15, 7, 19, 16, 10, 18, 15, 15, 15, 11, 7, 26, 25, 25, 28, 20, 10, 8, 5, 3, 19, 15, 9, 20, 16, 14, 23, 16, 4, 28, 27, 24, 23, 13, 3, 11, 10, 10, 26, 26, 26, 21, 20, 20, 10, 9, 8, 24, 13, 13, 15, 8, 2, 9, 9, 8, 9, 5, 3, 28, 21, 18, 4, 3, 2, 19, 16, 10, 22, 21, 20, 17, 16, 14, 21, 21, 21, 4, 3, 3, 10, 9, 8, 18, 16, 8, 13, 10, 2, 8, 6, 4, 14, 11, 10, 17, 15, 13, 8, 8, 8, 29, 26, 20, 21, 20, 20, 19, 14, 7, 17, 17, 9, 22, 19, 14, 18, 14, 11, 26, 25, 23, 5, 4, 3, 29, 27, 27, 17, 14, 10, 30, 30, 30, 22, 22, 22, 8, 6, 5, 11, 11, 10, 18, 13, 13, 19, 18, 18, 24, 23, 23, 17, 17, 14, 21, 19, 18, 20, 19, 16, 13, 13, 12|];